numOfMachines = 4;
numOfRobots = 2;
numOfJobs = 8;
maxOperations = 3;
operationsCount = [2,2,2,2,2,3,3,3];

operation = [
[<0,0,0>,<1,6,0>,<4,6,0>],
[<0,0,0>,<2,11,0>,<4,9,1>],
[<0,0,0>,<2,9,0>,<4,7,0>],
[<0,0,0>,<3,16,0>,<4,7,0>],
[<0,0,0>,<1,9,0>,<3,18,0>],
[<0,0,0>,<2,13,0>,<3,19,0>,<4,6,0>],
[<0,0,0>,<1,10,0>,<2,9,0>,<3,13,0>],
[<0,0,0>,<1,11,0>,<2,9,0>,<4,8,1>]
];